50
3 1 1
4 1 1
4 3 1
5 1 1
5 2 1
5 4 1
6 0 1
6 1 1
7 4 1
7 5 1
7 6 1
8 2 1
8 4 1
8 5 1
9 4 1
9 6 1
9 7 1
10 0 1
10 1 1
10 4 1
10 5 1
10 6 1
10 7 1
11 3 1
11 6 1
11 9 1
11 10 1
12 2 1
12 3 1
12 4 1
12 7 1
12 8 1
12 9 1
12 11 1
13 1 1
13 2 1
13 5 1
13 7 1
13 8 1
13 10 1
13 11 1
13 12 1
14 1 1
14 3 1
14 4 1
14 6 1
14 7 1
14 8 1
14 9 1
14 10 1
14 12 1
14 13 1
15 0 1
15 1 1
15 4 1
15 5 1
15 6 1
15 7 1
15 9 1
15 10 1
15 11 1
15 12 1
16 1 1
16 2 1
16 6 1
16 7 1
16 9 1
16 11 1
16 12 1
16 14 1
16 15 1
17 1 1
17 7 1
17 10 1
17 12 1
17 13 1
17 14 1
17 15 1
18 1 1
18 2 1
18 3 1
18 5 1
18 8 1
18 10 1
18 11 1
18 12 1
18 14 1
18 15 1
18 16 1
18 17 1
19 0 1
19 4 1
19 6 1
19 9 1
19 10 1
19 11 1
19 14 1
19 16 1
20 1 1
20 4 1
20 6 1
20 8 1
20 9 1
20 10 1
20 13 1
20 15 1
20 18 1
20 19 1
21 0 1
21 3 1
21 4 1
21 5 1
21 9 1
21 12 1
21 13 1
21 15 1
21 16 1
21 17 1
21 18 1
21 20 1
22 0 1
22 1 1
22 9 1
22 10 1
22 12 1
22 17 1
22 19 1
22 20 1
23 1 1
23 3 1
23 5 1
23 6 1
23 7 1
23 9 1
23 13 1
23 14 1
23 19 1
23 20 1
23 21 1
24 0 1
24 1 1
24 2 1
24 4 1
24 5 1
24 6 1
24 7 1
24 10 1
24 12 1
24 13 1
24 14 1
24 15 1
24 16 1
24 19 1
24 20 1
24 23 1
25 1 1
25 3 1
25 5 1
25 10 1
25 11 1
25 12 1
25 14 1
25 15 1
25 17 1
25 18 1
25 19 1
25 20 1
25 21 1
25 23 1
26 3 1
26 7 1
26 9 1
26 11 1
26 13 1
26 14 1
26 15 1
26 20 1
26 22 1
26 24 1
27 1 1
27 2 1
27 3 1
27 5 1
27 7 1
27 8 1
27 12 1
27 17 1
27 19 1
27 21 1
27 23 1
27 25 1
27 26 1
28 0 1
28 3 1
28 6 1
28 8 1
28 12 1
28 13 1
28 18 1
28 19 1
28 20 1
28 23 1
28 25 1
28 26 1
28 27 1
29 0 1
29 1 1
29 6 1
29 7 1
29 9 1
29 10 1
29 11 1
29 13 1
29 18 1
29 19 1
29 20 1
29 21 1
29 22 1
29 23 1
29 25 1
30 0 1
30 2 1
30 3 1
30 7 1
30 8 1
30 11 1
30 12 1
30 13 1
30 15 1
30 17 1
30 21 1
30 22 1
30 24 1
30 25 1
30 26 1
30 28 1
31 1 1
31 8 1
31 9 1
31 10 1
31 11 1
31 14 1
31 16 1
31 18 1
31 20 1
31 21 1
31 22 1
31 23 1
31 25 1
31 27 1
31 29 1
31 30 1
32 1 1
32 2 1
32 3 1
32 4 1
32 9 1
32 11 1
32 13 1
32 14 1
32 15 1
32 16 1
32 17 1
32 22 1
32 26 1
32 27 1
32 30 1
32 31 1
33 1 1
33 5 1
33 8 1
33 9 1
33 12 1
33 13 1
33 14 1
33 15 1
33 16 1
33 17 1
33 21 1
33 22 1
33 26 1
33 32 1
34 2 1
34 3 1
34 4 1
34 5 1
34 8 1
34 10 1
34 12 1
34 18 1
34 19 1
34 20 1
34 21 1
34 22 1
34 25 1
34 27 1
34 28 1
34 29 1
34 31 1
34 32 1
34 33 1
35 7 1
35 8 1
35 9 1
35 12 1
35 13 1
35 14 1
35 15 1
35 16 1
35 18 1
35 19 1
35 20 1
35 21 1
35 25 1
35 26 1
35 27 1
35 29 1
35 31 1
35 33 1
36 0 1
36 3 1
36 5 1
36 9 1
36 10 1
36 11 1
36 13 1
36 14 1
36 21 1
36 22 1
36 24 1
36 25 1
36 28 1
36 29 1
36 30 1
36 31 1
36 34 1
36 35 1
37 2 1
37 4 1
37 5 1
37 7 1
37 8 1
37 9 1
37 11 1
37 12 1
37 14 1
37 15 1
37 16 1
37 17 1
37 19 1
37 20 1
37 22 1
37 26 1
37 29 1
37 30 1
37 31 1
37 33 1
37 34 1
37 35 1
38 0 1
38 3 1
38 4 1
38 5 1
38 6 1
38 10 1
38 11 1
38 13 1
38 18 1
38 19 1
38 20 1
38 22 1
38 25 1
38 26 1
38 28 1
38 29 1
38 30 1
38 32 1
39 0 1
39 2 1
39 5 1
39 7 1
39 9 1
39 10 1
39 11 1
39 13 1
39 14 1
39 15 1
39 21 1
39 22 1
39 23 1
39 27 1
39 31 1
39 32 1
39 33 1
39 35 1
39 38 1
40 2 1
40 4 1
40 5 1
40 7 1
40 10 1
40 11 1
40 12 1
40 13 1
40 15 1
40 19 1
40 23 1
40 25 1
40 26 1
40 27 1
40 31 1
40 32 1
40 34 1
40 37 1
41 0 1
41 2 1
41 10 1
41 11 1
41 13 1
41 14 1
41 16 1
41 17 1
41 18 1
41 19 1
41 28 1
41 34 1
41 35 1
41 37 1
41 38 1
41 39 1
41 40 1
42 2 1
42 4 1
42 5 1
42 7 1
42 8 1
42 11 1
42 13 1
42 18 1
42 19 1
42 20 1
42 21 1
42 22 1
42 23 1
42 25 1
42 28 1
42 29 1
42 30 1
42 32 1
42 33 1
42 34 1
42 36 1
42 38 1
42 40 1
42 41 1
43 2 1
43 4 1
43 5 1
43 8 1
43 9 1
43 14 1
43 16 1
43 19 1
43 20 1
43 21 1
43 23 1
43 25 1
43 31 1
43 32 1
43 33 1
43 34 1
43 35 1
43 36 1
43 38 1
43 39 1
44 0 1
44 2 1
44 3 1
44 7 1
44 9 1
44 10 1
44 11 1
44 12 1
44 13 1
44 16 1
44 18 1
44 19 1
44 20 1
44 22 1
44 23 1
44 24 1
44 25 1
44 26 1
44 29 1
44 33 1
44 34 1
44 36 1
44 37 1
44 39 1
44 41 1
44 43 1
45 3 1
45 6 1
45 8 1
45 9 1
45 10 1
45 11 1
45 12 1
45 13 1
45 14 1
45 17 1
45 18 1
45 20 1
45 21 1
45 24 1
45 25 1
45 28 1
45 32 1
45 35 1
45 38 1
45 39 1
45 42 1
46 1 1
46 3 1
46 4 1
46 6 1
46 7 1
46 8 1
46 10 1
46 13 1
46 14 1
46 16 1
46 19 1
46 20 1
46 21 1
46 22 1
46 23 1
46 25 1
46 26 1
46 28 1
46 29 1
46 33 1
46 34 1
46 37 1
46 39 1
46 40 1
46 43 1
46 44 1
46 45 1
47 2 1
47 8 1
47 11 1
47 13 1
47 17 1
47 18 1
47 23 1
47 24 1
47 25 1
47 26 1
47 31 1
47 33 1
47 35 1
47 37 1
47 39 1
47 40 1
47 41 1
47 42 1
47 44 1
47 46 1
48 1 1
48 5 1
48 6 1
48 8 1
48 9 1
48 14 1
48 15 1
48 17 1
48 18 1
48 19 1
48 22 1
48 23 1
48 24 1
48 26 1
48 31 1
48 33 1
48 34 1
48 35 1
48 38 1
48 42 1
48 45 1
48 46 1
48 47 1
49 2 1
49 3 1
49 4 1
49 5 1
49 13 1
49 20 1
49 22 1
49 24 1
49 26 1
49 28 1
49 29 1
49 32 1
49 38 1
49 40 1
49 45 1
49 46 1
